La Zr  O
 1.0000000000000000
    -0.0000000000000000    5.3695785960000002    5.3695785960000002
     5.3695785960000002   -0.0000000000000000    5.3695785960000002
     5.3695785960000002    5.3695785960000002   -0.0000000000000000
   4   4  14
Cartesian
  1.3423946490000001  1.3423946490000001  1.3423946490000001
  1.3423946490000001  4.0271839470000002  4.0271839470000002
  4.0271839469999984  1.3423946490000001  4.0271839469999975
  4.0271839470000002  4.0271839469999993  1.3423946490000007
  6.7119732450000003  6.7119732450000003  6.7119732450000003
  6.7119732449999994  4.0271839469999993  4.0271839470000002
  4.0271839469999993  6.7119732449999994  4.0271839470000002
  4.0271839469999993  4.0271839469999993  6.7119732449999994
  8.0543678940000003  5.8231711220000006  8.0543678940000003
  5.3695785960000002  3.1383818239999997  5.3695785960000002
  8.0543678940000003 10.2855646669999992  8.0543678940000003
  5.3695785960000002  7.6007753679999999  5.3695785960000002
  5.8231711219999998  8.0543678940000003  8.0543678940000003
  3.1383818239999997  5.3695785960000002  5.3695785960000002
 10.2855646669999992  8.0543678940000003  8.0543678940000003
  7.6007753679999999  5.3695785960000002  5.3695785960000002
  8.0543678940000003  8.0543678940000003  5.8231711219999998
  5.3695785960000002  5.3695785960000002  3.1383818239999997
  8.0543678940000003  8.0543678940000003 10.2855646670000009
  5.3695785960000002  5.3695785960000002  7.6007753689999999
  2.6847892980000001  2.6847892980000001  2.6847892980000001
  0.0000000000000000  0.0000000000000000  0.0000000000000000
