 Al N
   1.0
     3.1109999994919080    0.0000000000000000    0.0000000000000000
    -1.5554999997459540    2.6942050307333680    0.0000000000000000
     0.0000000000000000    0.0000000000000000    4.9779999999999998
 Al N
   2   2
Direct
   0.3333333333333333  0.6666666666666665  0.0009488200000000
   0.6666666666666667  0.3333333333333333  0.5009488200000001
   0.3333333333333333  0.6666666666666665  0.6190511800000000
   0.6666666666666667  0.3333333333333333  0.1190511800000000
