generated by phonopy
   1.0
    21.7342401199999991    0.0000000000000000    0.0000000000000000
     0.0000000000000000   21.7342401199999991    0.0000000000000000
     0.0000000000000000    0.0000000000000000   21.7342401199999991
Si
 512
Direct
  0.2201303105070323  0.2187500000000000  0.2187500000000000
  0.4687500000000000  0.2187500000000000  0.2187500000000000
  0.7187500000000000  0.2187500000000000  0.2187500000000000
  0.9687500000000000  0.2187500000000000  0.2187500000000000
  0.2187500000000000  0.4687500000000000  0.2187500000000000
  0.4687500000000000  0.4687500000000000  0.2187500000000000
  0.7187500000000000  0.4687500000000000  0.2187500000000000
  0.9687500000000000  0.4687500000000000  0.2187500000000000
  0.2187500000000000  0.7187500000000000  0.2187500000000000
  0.4687500000000000  0.7187500000000000  0.2187500000000000
  0.7187500000000000  0.7187500000000000  0.2187500000000000
  0.9687500000000000  0.7187500000000000  0.2187500000000000
  0.2187500000000000  0.9687500000000000  0.2187500000000000
  0.4687500000000000  0.9687500000000000  0.2187500000000000
  0.7187500000000000  0.9687500000000000  0.2187500000000000
  0.9687500000000000  0.9687500000000000  0.2187500000000000
  0.2187500000000000  0.2187500000000000  0.4687500000000000
  0.4687500000000000  0.2187500000000000  0.4687500000000000
  0.7187500000000000  0.2187500000000000  0.4687500000000000
  0.9687500000000000  0.2187500000000000  0.4687500000000000
  0.2187500000000000  0.4687500000000000  0.4687500000000000
  0.4687500000000000  0.4687500000000000  0.4687500000000000
  0.7187500000000000  0.4687500000000000  0.4687500000000000
  0.9687500000000000  0.4687500000000000  0.4687500000000000
  0.2187500000000000  0.7187500000000000  0.4687500000000000
  0.4687500000000000  0.7187500000000000  0.4687500000000000
  0.7187500000000000  0.7187500000000000  0.4687500000000000
  0.9687500000000000  0.7187500000000000  0.4687500000000000
  0.2187500000000000  0.9687500000000000  0.4687500000000000
  0.4687500000000000  0.9687500000000000  0.4687500000000000
  0.7187500000000000  0.9687500000000000  0.4687500000000000
  0.9687500000000000  0.9687500000000000  0.4687500000000000
  0.2187500000000000  0.2187500000000000  0.7187500000000000
  0.4687500000000000  0.2187500000000000  0.7187500000000000
  0.7187500000000000  0.2187500000000000  0.7187500000000000
  0.9687500000000000  0.2187500000000000  0.7187500000000000
  0.2187500000000000  0.4687500000000000  0.7187500000000000
  0.4687500000000000  0.4687500000000000  0.7187500000000000
  0.7187500000000000  0.4687500000000000  0.7187500000000000
  0.9687500000000000  0.4687500000000000  0.7187500000000000
  0.2187500000000000  0.7187500000000000  0.7187500000000000
  0.4687500000000000  0.7187500000000000  0.7187500000000000
  0.7187500000000000  0.7187500000000000  0.7187500000000000
  0.9687500000000000  0.7187500000000000  0.7187500000000000
  0.2187500000000000  0.9687500000000000  0.7187500000000000
  0.4687500000000000  0.9687500000000000  0.7187500000000000
  0.7187500000000000  0.9687500000000000  0.7187500000000000
  0.9687500000000000  0.9687500000000000  0.7187500000000000
  0.2187500000000000  0.2187500000000000  0.9687500000000000
  0.4687500000000000  0.2187500000000000  0.9687500000000000
  0.7187500000000000  0.2187500000000000  0.9687500000000000
  0.9687500000000000  0.2187500000000000  0.9687500000000000
  0.2187500000000000  0.4687500000000000  0.9687500000000000
  0.4687500000000000  0.4687500000000000  0.9687500000000000
  0.7187500000000000  0.4687500000000000  0.9687500000000000
  0.9687500000000000  0.4687500000000000  0.9687500000000000
  0.2187500000000000  0.7187500000000000  0.9687500000000000
  0.4687500000000000  0.7187500000000000  0.9687500000000000
  0.7187500000000000  0.7187500000000000  0.9687500000000000
  0.9687500000000000  0.7187500000000000  0.9687500000000000
  0.2187500000000000  0.9687500000000000  0.9687500000000000
  0.4687500000000000  0.9687500000000000  0.9687500000000000
  0.7187500000000000  0.9687500000000000  0.9687500000000000
  0.9687500000000000  0.9687500000000000  0.9687500000000000
  0.2187500000000000  0.0937500000000000  0.0937500000000000
  0.4687500000000000  0.0937500000000000  0.0937500000000000
  0.7187500000000000  0.0937500000000000  0.0937500000000000
  0.9687500000000000  0.0937500000000000  0.0937500000000000
  0.2187500000000000  0.3437500000000000  0.0937500000000000
  0.4687500000000000  0.3437500000000000  0.0937500000000000
  0.7187500000000000  0.3437500000000000  0.0937500000000000
  0.9687500000000000  0.3437500000000000  0.0937500000000000
  0.2187500000000000  0.5937500000000000  0.0937500000000000
  0.4687500000000000  0.5937500000000000  0.0937500000000000
  0.7187500000000000  0.5937500000000000  0.0937500000000000
  0.9687500000000000  0.5937500000000000  0.0937500000000000
  0.2187500000000000  0.8437499999999999  0.0937500000000000
  0.4687500000000000  0.8437499999999999  0.0937500000000000
  0.7187500000000000  0.8437499999999999  0.0937500000000000
  0.9687500000000000  0.8437499999999999  0.0937500000000000
  0.2187500000000000  0.0937500000000000  0.3437500000000000
  0.4687500000000000  0.0937500000000000  0.3437500000000000
  0.7187500000000000  0.0937500000000000  0.3437500000000000
  0.9687500000000000  0.0937500000000000  0.3437500000000000
  0.2187500000000000  0.3437500000000000  0.3437500000000000
  0.4687500000000000  0.3437500000000000  0.3437500000000000
  0.7187500000000000  0.3437500000000000  0.3437500000000000
  0.9687500000000000  0.3437500000000000  0.3437500000000000
  0.2187500000000000  0.5937500000000000  0.3437500000000000
  0.4687500000000000  0.5937500000000000  0.3437500000000000
  0.7187500000000000  0.5937500000000000  0.3437500000000000
  0.9687500000000000  0.5937500000000000  0.3437500000000000
  0.2187500000000000  0.8437499999999999  0.3437500000000000
  0.4687500000000000  0.8437499999999999  0.3437500000000000
  0.7187500000000000  0.8437499999999999  0.3437500000000000
  0.9687500000000000  0.8437499999999999  0.3437500000000000
  0.2187500000000000  0.0937500000000000  0.5937500000000000
  0.4687500000000000  0.0937500000000000  0.5937500000000000
  0.7187500000000000  0.0937500000000000  0.5937500000000000
  0.9687500000000000  0.0937500000000000  0.5937500000000000
  0.2187500000000000  0.3437500000000000  0.5937500000000000
  0.4687500000000000  0.3437500000000000  0.5937500000000000
  0.7187500000000000  0.3437500000000000  0.5937500000000000
  0.9687500000000000  0.3437500000000000  0.5937500000000000
  0.2187500000000000  0.5937500000000000  0.5937500000000000
  0.4687500000000000  0.5937500000000000  0.5937500000000000
  0.7187500000000000  0.5937500000000000  0.5937500000000000
  0.9687500000000000  0.5937500000000000  0.5937500000000000
  0.2187500000000000  0.8437499999999999  0.5937500000000000
  0.4687500000000000  0.8437499999999999  0.5937500000000000
  0.7187500000000000  0.8437499999999999  0.5937500000000000
  0.9687500000000000  0.8437499999999999  0.5937500000000000
  0.2187500000000000  0.0937500000000000  0.8437499999999999
  0.4687500000000000  0.0937500000000000  0.8437499999999999
  0.7187500000000000  0.0937500000000000  0.8437499999999999
  0.9687500000000000  0.0937500000000000  0.8437499999999999
  0.2187500000000000  0.3437500000000000  0.8437499999999999
  0.4687500000000000  0.3437500000000000  0.8437499999999999
  0.7187500000000000  0.3437500000000000  0.8437499999999999
  0.9687500000000000  0.3437500000000000  0.8437499999999999
  0.2187500000000000  0.5937500000000000  0.8437499999999999
  0.4687500000000000  0.5937500000000000  0.8437499999999999
  0.7187500000000000  0.5937500000000000  0.8437499999999999
  0.9687500000000000  0.5937500000000000  0.8437499999999999
  0.2187500000000000  0.8437499999999999  0.8437499999999999
  0.4687500000000000  0.8437499999999999  0.8437499999999999
  0.7187500000000000  0.8437499999999999  0.8437499999999999
  0.9687500000000000  0.8437499999999999  0.8437499999999999
  0.0937500000000000  0.2187500000000000  0.0937500000000000
  0.3437500000000000  0.2187500000000000  0.0937500000000000
  0.5937500000000000  0.2187500000000000  0.0937500000000000
  0.8437499999999999  0.2187500000000000  0.0937500000000000
  0.0937500000000000  0.4687500000000000  0.0937500000000000
  0.3437500000000000  0.4687500000000000  0.0937500000000000
  0.5937500000000000  0.4687500000000000  0.0937500000000000
  0.8437499999999999  0.4687500000000000  0.0937500000000000
  0.0937500000000000  0.7187500000000000  0.0937500000000000
  0.3437500000000000  0.7187500000000000  0.0937500000000000
  0.5937500000000000  0.7187500000000000  0.0937500000000000
  0.8437499999999999  0.7187500000000000  0.0937500000000000
  0.0937500000000000  0.9687500000000000  0.0937500000000000
  0.3437500000000000  0.9687500000000000  0.0937500000000000
  0.5937500000000000  0.9687500000000000  0.0937500000000000
  0.8437499999999999  0.9687500000000000  0.0937500000000000
  0.0937500000000000  0.2187500000000000  0.3437500000000000
  0.3437500000000000  0.2187500000000000  0.3437500000000000
  0.5937500000000000  0.2187500000000000  0.3437500000000000
  0.8437499999999999  0.2187500000000000  0.3437500000000000
  0.0937500000000000  0.4687500000000000  0.3437500000000000
  0.3437500000000000  0.4687500000000000  0.3437500000000000
  0.5937500000000000  0.4687500000000000  0.3437500000000000
  0.8437499999999999  0.4687500000000000  0.3437500000000000
  0.0937500000000000  0.7187500000000000  0.3437500000000000
  0.3437500000000000  0.7187500000000000  0.3437500000000000
  0.5937500000000000  0.7187500000000000  0.3437500000000000
  0.8437499999999999  0.7187500000000000  0.3437500000000000
  0.0937500000000000  0.9687500000000000  0.3437500000000000
  0.3437500000000000  0.9687500000000000  0.3437500000000000
  0.5937500000000000  0.9687500000000000  0.3437500000000000
  0.8437499999999999  0.9687500000000000  0.3437500000000000
  0.0937500000000000  0.2187500000000000  0.5937500000000000
  0.3437500000000000  0.2187500000000000  0.5937500000000000
  0.5937500000000000  0.2187500000000000  0.5937500000000000
  0.8437499999999999  0.2187500000000000  0.5937500000000000
  0.0937500000000000  0.4687500000000000  0.5937500000000000
  0.3437500000000000  0.4687500000000000  0.5937500000000000
  0.5937500000000000  0.4687500000000000  0.5937500000000000
  0.8437499999999999  0.4687500000000000  0.5937500000000000
  0.0937500000000000  0.7187500000000000  0.5937500000000000
  0.3437500000000000  0.7187500000000000  0.5937500000000000
  0.5937500000000000  0.7187500000000000  0.5937500000000000
  0.8437499999999999  0.7187500000000000  0.5937500000000000
  0.0937500000000000  0.9687500000000000  0.5937500000000000
  0.3437500000000000  0.9687500000000000  0.5937500000000000
  0.5937500000000000  0.9687500000000000  0.5937500000000000
  0.8437499999999999  0.9687500000000000  0.5937500000000000
  0.0937500000000000  0.2187500000000000  0.8437499999999999
  0.3437500000000000  0.2187500000000000  0.8437499999999999
  0.5937500000000000  0.2187500000000000  0.8437499999999999
  0.8437499999999999  0.2187500000000000  0.8437499999999999
  0.0937500000000000  0.4687500000000000  0.8437499999999999
  0.3437500000000000  0.4687500000000000  0.8437499999999999
  0.5937500000000000  0.4687500000000000  0.8437499999999999
  0.8437499999999999  0.4687500000000000  0.8437499999999999
  0.0937500000000000  0.7187500000000000  0.8437499999999999
  0.3437500000000000  0.7187500000000000  0.8437499999999999
  0.5937500000000000  0.7187500000000000  0.8437499999999999
  0.8437499999999999  0.7187500000000000  0.8437499999999999
  0.0937500000000000  0.9687500000000000  0.8437499999999999
  0.3437500000000000  0.9687500000000000  0.8437499999999999
  0.5937500000000000  0.9687500000000000  0.8437499999999999
  0.8437499999999999  0.9687500000000000  0.8437499999999999
  0.0937500000000000  0.0937500000000000  0.2187500000000000
  0.3437500000000000  0.0937500000000000  0.2187500000000000
  0.5937500000000000  0.0937500000000000  0.2187500000000000
  0.8437499999999999  0.0937500000000000  0.2187500000000000
  0.0937500000000000  0.3437500000000000  0.2187500000000000
  0.3437500000000000  0.3437500000000000  0.2187500000000000
  0.5937500000000000  0.3437500000000000  0.2187500000000000
  0.8437499999999999  0.3437500000000000  0.2187500000000000
  0.0937500000000000  0.5937500000000000  0.2187500000000000
  0.3437500000000000  0.5937500000000000  0.2187500000000000
  0.5937500000000000  0.5937500000000000  0.2187500000000000
  0.8437499999999999  0.5937500000000000  0.2187500000000000
  0.0937500000000000  0.8437499999999999  0.2187500000000000
  0.3437500000000000  0.8437499999999999  0.2187500000000000
  0.5937500000000000  0.8437499999999999  0.2187500000000000
  0.8437499999999999  0.8437499999999999  0.2187500000000000
  0.0937500000000000  0.0937500000000000  0.4687500000000000
  0.3437500000000000  0.0937500000000000  0.4687500000000000
  0.5937500000000000  0.0937500000000000  0.4687500000000000
  0.8437499999999999  0.0937500000000000  0.4687500000000000
  0.0937500000000000  0.3437500000000000  0.4687500000000000
  0.3437500000000000  0.3437500000000000  0.4687500000000000
  0.5937500000000000  0.3437500000000000  0.4687500000000000
  0.8437499999999999  0.3437500000000000  0.4687500000000000
  0.0937500000000000  0.5937500000000000  0.4687500000000000
  0.3437500000000000  0.5937500000000000  0.4687500000000000
  0.5937500000000000  0.5937500000000000  0.4687500000000000
  0.8437499999999999  0.5937500000000000  0.4687500000000000
  0.0937500000000000  0.8437499999999999  0.4687500000000000
  0.3437500000000000  0.8437499999999999  0.4687500000000000
  0.5937500000000000  0.8437499999999999  0.4687500000000000
  0.8437499999999999  0.8437499999999999  0.4687500000000000
  0.0937500000000000  0.0937500000000000  0.7187500000000000
  0.3437500000000000  0.0937500000000000  0.7187500000000000
  0.5937500000000000  0.0937500000000000  0.7187500000000000
  0.8437499999999999  0.0937500000000000  0.7187500000000000
  0.0937500000000000  0.3437500000000000  0.7187500000000000
  0.3437500000000000  0.3437500000000000  0.7187500000000000
  0.5937500000000000  0.3437500000000000  0.7187500000000000
  0.8437499999999999  0.3437500000000000  0.7187500000000000
  0.0937500000000000  0.5937500000000000  0.7187500000000000
  0.3437500000000000  0.5937500000000000  0.7187500000000000
  0.5937500000000000  0.5937500000000000  0.7187500000000000
  0.8437499999999999  0.5937500000000000  0.7187500000000000
  0.0937500000000000  0.8437499999999999  0.7187500000000000
  0.3437500000000000  0.8437499999999999  0.7187500000000000
  0.5937500000000000  0.8437499999999999  0.7187500000000000
  0.8437499999999999  0.8437499999999999  0.7187500000000000
  0.0937500000000000  0.0937500000000000  0.9687500000000000
  0.3437500000000000  0.0937500000000000  0.9687500000000000
  0.5937500000000000  0.0937500000000000  0.9687500000000000
  0.8437499999999999  0.0937500000000000  0.9687500000000000
  0.0937500000000000  0.3437500000000000  0.9687500000000000
  0.3437500000000000  0.3437500000000000  0.9687500000000000
  0.5937500000000000  0.3437500000000000  0.9687500000000000
  0.8437499999999999  0.3437500000000000  0.9687500000000000
  0.0937500000000000  0.5937500000000000  0.9687500000000000
  0.3437500000000000  0.5937500000000000  0.9687500000000000
  0.5937500000000000  0.5937500000000000  0.9687500000000000
  0.8437499999999999  0.5937500000000000  0.9687500000000000
  0.0937500000000000  0.8437499999999999  0.9687500000000000
  0.3437500000000000  0.8437499999999999  0.9687500000000000
  0.5937500000000000  0.8437499999999999  0.9687500000000000
  0.8437499999999999  0.8437499999999999  0.9687500000000000
  0.0312500000000000  0.0312500000000000  0.0312500000000000
  0.2812500000000000  0.0312500000000000  0.0312500000000000
  0.5312500000000000  0.0312500000000000  0.0312500000000000
  0.7812500000000000  0.0312500000000000  0.0312500000000000
  0.0312500000000000  0.2812500000000000  0.0312500000000000
  0.2812500000000000  0.2812500000000000  0.0312500000000000
  0.5312500000000000  0.2812500000000000  0.0312500000000000
  0.7812500000000000  0.2812500000000000  0.0312500000000000
  0.0312500000000000  0.5312500000000000  0.0312500000000000
  0.2812500000000000  0.5312500000000000  0.0312500000000000
  0.5312500000000000  0.5312500000000000  0.0312500000000000
  0.7812500000000000  0.5312500000000000  0.0312500000000000
  0.0312500000000000  0.7812500000000000  0.0312500000000000
  0.2812500000000000  0.7812500000000000  0.0312500000000000
  0.5312500000000000  0.7812500000000000  0.0312500000000000
  0.7812500000000000  0.7812500000000000  0.0312500000000000
  0.0312500000000000  0.0312500000000000  0.2812500000000000
  0.2812500000000000  0.0312500000000000  0.2812500000000000
  0.5312500000000000  0.0312500000000000  0.2812500000000000
  0.7812500000000000  0.0312500000000000  0.2812500000000000
  0.0312500000000000  0.2812500000000000  0.2812500000000000
  0.2812500000000000  0.2812500000000000  0.2812500000000000
  0.5312500000000000  0.2812500000000000  0.2812500000000000
  0.7812500000000000  0.2812500000000000  0.2812500000000000
  0.0312500000000000  0.5312500000000000  0.2812500000000000
  0.2812500000000000  0.5312500000000000  0.2812500000000000
  0.5312500000000000  0.5312500000000000  0.2812500000000000
  0.7812500000000000  0.5312500000000000  0.2812500000000000
  0.0312500000000000  0.7812500000000000  0.2812500000000000
  0.2812500000000000  0.7812500000000000  0.2812500000000000
  0.5312500000000000  0.7812500000000000  0.2812500000000000
  0.7812500000000000  0.7812500000000000  0.2812500000000000
  0.0312500000000000  0.0312500000000000  0.5312500000000000
  0.2812500000000000  0.0312500000000000  0.5312500000000000
  0.5312500000000000  0.0312500000000000  0.5312500000000000
  0.7812500000000000  0.0312500000000000  0.5312500000000000
  0.0312500000000000  0.2812500000000000  0.5312500000000000
  0.2812500000000000  0.2812500000000000  0.5312500000000000
  0.5312500000000000  0.2812500000000000  0.5312500000000000
  0.7812500000000000  0.2812500000000000  0.5312500000000000
  0.0312500000000000  0.5312500000000000  0.5312500000000000
  0.2812500000000000  0.5312500000000000  0.5312500000000000
  0.5312500000000000  0.5312500000000000  0.5312500000000000
  0.7812500000000000  0.5312500000000000  0.5312500000000000
  0.0312500000000000  0.7812500000000000  0.5312500000000000
  0.2812500000000000  0.7812500000000000  0.5312500000000000
  0.5312500000000000  0.7812500000000000  0.5312500000000000
  0.7812500000000000  0.7812500000000000  0.5312500000000000
  0.0312500000000000  0.0312500000000000  0.7812500000000000
  0.2812500000000000  0.0312500000000000  0.7812500000000000
  0.5312500000000000  0.0312500000000000  0.7812500000000000
  0.7812500000000000  0.0312500000000000  0.7812500000000000
  0.0312500000000000  0.2812500000000000  0.7812500000000000
  0.2812500000000000  0.2812500000000000  0.7812500000000000
  0.5312500000000000  0.2812500000000000  0.7812500000000000
  0.7812500000000000  0.2812500000000000  0.7812500000000000
  0.0312500000000000  0.5312500000000000  0.7812500000000000
  0.2812500000000000  0.5312500000000000  0.7812500000000000
  0.5312500000000000  0.5312500000000000  0.7812500000000000
  0.7812500000000000  0.5312500000000000  0.7812500000000000
  0.0312500000000000  0.7812500000000000  0.7812500000000000
  0.2812500000000000  0.7812500000000000  0.7812500000000000
  0.5312500000000000  0.7812500000000000  0.7812500000000000
  0.7812500000000000  0.7812500000000000  0.7812500000000000
  0.0312500000000000  0.1562500000000000  0.1562500000000000
  0.2812500000000000  0.1562500000000000  0.1562500000000000
  0.5312500000000000  0.1562500000000000  0.1562500000000000
  0.7812500000000000  0.1562500000000000  0.1562500000000000
  0.0312500000000000  0.4062500000000000  0.1562500000000000
  0.2812500000000000  0.4062500000000000  0.1562500000000000
  0.5312500000000000  0.4062500000000000  0.1562500000000000
  0.7812500000000000  0.4062500000000000  0.1562500000000000
  0.0312500000000000  0.6562500000000000  0.1562500000000000
  0.2812500000000000  0.6562500000000000  0.1562500000000000
  0.5312500000000000  0.6562500000000000  0.1562500000000000
  0.7812500000000000  0.6562500000000000  0.1562500000000000
  0.0312500000000000  0.9062500000000000  0.1562500000000000
  0.2812500000000000  0.9062500000000000  0.1562500000000000
  0.5312500000000000  0.9062500000000000  0.1562500000000000
  0.7812500000000000  0.9062500000000000  0.1562500000000000
  0.0312500000000000  0.1562500000000000  0.4062500000000000
  0.2812500000000000  0.1562500000000000  0.4062500000000000
  0.5312500000000000  0.1562500000000000  0.4062500000000000
  0.7812500000000000  0.1562500000000000  0.4062500000000000
  0.0312500000000000  0.4062500000000000  0.4062500000000000
  0.2812500000000000  0.4062500000000000  0.4062500000000000
  0.5312500000000000  0.4062500000000000  0.4062500000000000
  0.7812500000000000  0.4062500000000000  0.4062500000000000
  0.0312500000000000  0.6562500000000000  0.4062500000000000
  0.2812500000000000  0.6562500000000000  0.4062500000000000
  0.5312500000000000  0.6562500000000000  0.4062500000000000
  0.7812500000000000  0.6562500000000000  0.4062500000000000
  0.0312500000000000  0.9062500000000000  0.4062500000000000
  0.2812500000000000  0.9062500000000000  0.4062500000000000
  0.5312500000000000  0.9062500000000000  0.4062500000000000
  0.7812500000000000  0.9062500000000000  0.4062500000000000
  0.0312500000000000  0.1562500000000000  0.6562500000000000
  0.2812500000000000  0.1562500000000000  0.6562500000000000
  0.5312500000000000  0.1562500000000000  0.6562500000000000
  0.7812500000000000  0.1562500000000000  0.6562500000000000
  0.0312500000000000  0.4062500000000000  0.6562500000000000
  0.2812500000000000  0.4062500000000000  0.6562500000000000
  0.5312500000000000  0.4062500000000000  0.6562500000000000
  0.7812500000000000  0.4062500000000000  0.6562500000000000
  0.0312500000000000  0.6562500000000000  0.6562500000000000
  0.2812500000000000  0.6562500000000000  0.6562500000000000
  0.5312500000000000  0.6562500000000000  0.6562500000000000
  0.7812500000000000  0.6562500000000000  0.6562500000000000
  0.0312500000000000  0.9062500000000000  0.6562500000000000
  0.2812500000000000  0.9062500000000000  0.6562500000000000
  0.5312500000000000  0.9062500000000000  0.6562500000000000
  0.7812500000000000  0.9062500000000000  0.6562500000000000
  0.0312500000000000  0.1562500000000000  0.9062500000000000
  0.2812500000000000  0.1562500000000000  0.9062500000000000
  0.5312500000000000  0.1562500000000000  0.9062500000000000
  0.7812500000000000  0.1562500000000000  0.9062500000000000
  0.0312500000000000  0.4062500000000000  0.9062500000000000
  0.2812500000000000  0.4062500000000000  0.9062500000000000
  0.5312500000000000  0.4062500000000000  0.9062500000000000
  0.7812500000000000  0.4062500000000000  0.9062500000000000
  0.0312500000000000  0.6562500000000000  0.9062500000000000
  0.2812500000000000  0.6562500000000000  0.9062500000000000
  0.5312500000000000  0.6562500000000000  0.9062500000000000
  0.7812500000000000  0.6562500000000000  0.9062500000000000
  0.0312500000000000  0.9062500000000000  0.9062500000000000
  0.2812500000000000  0.9062500000000000  0.9062500000000000
  0.5312500000000000  0.9062500000000000  0.9062500000000000
  0.7812500000000000  0.9062500000000000  0.9062500000000000
  0.1562500000000000  0.0312500000000000  0.1562500000000000
  0.4062500000000000  0.0312500000000000  0.1562500000000000
  0.6562500000000000  0.0312500000000000  0.1562500000000000
  0.9062500000000000  0.0312500000000000  0.1562500000000000
  0.1562500000000000  0.2812500000000000  0.1562500000000000
  0.4062500000000000  0.2812500000000000  0.1562500000000000
  0.6562500000000000  0.2812500000000000  0.1562500000000000
  0.9062500000000000  0.2812500000000000  0.1562500000000000
  0.1562500000000000  0.5312500000000000  0.1562500000000000
  0.4062500000000000  0.5312500000000000  0.1562500000000000
  0.6562500000000000  0.5312500000000000  0.1562500000000000
  0.9062500000000000  0.5312500000000000  0.1562500000000000
  0.1562500000000000  0.7812500000000000  0.1562500000000000
  0.4062500000000000  0.7812500000000000  0.1562500000000000
  0.6562500000000000  0.7812500000000000  0.1562500000000000
  0.9062500000000000  0.7812500000000000  0.1562500000000000
  0.1562500000000000  0.0312500000000000  0.4062500000000000
  0.4062500000000000  0.0312500000000000  0.4062500000000000
  0.6562500000000000  0.0312500000000000  0.4062500000000000
  0.9062500000000000  0.0312500000000000  0.4062500000000000
  0.1562500000000000  0.2812500000000000  0.4062500000000000
  0.4062500000000000  0.2812500000000000  0.4062500000000000
  0.6562500000000000  0.2812500000000000  0.4062500000000000
  0.9062500000000000  0.2812500000000000  0.4062500000000000
  0.1562500000000000  0.5312500000000000  0.4062500000000000
  0.4062500000000000  0.5312500000000000  0.4062500000000000
  0.6562500000000000  0.5312500000000000  0.4062500000000000
  0.9062500000000000  0.5312500000000000  0.4062500000000000
  0.1562500000000000  0.7812500000000000  0.4062500000000000
  0.4062500000000000  0.7812500000000000  0.4062500000000000
  0.6562500000000000  0.7812500000000000  0.4062500000000000
  0.9062500000000000  0.7812500000000000  0.4062500000000000
  0.1562500000000000  0.0312500000000000  0.6562500000000000
  0.4062500000000000  0.0312500000000000  0.6562500000000000
  0.6562500000000000  0.0312500000000000  0.6562500000000000
  0.9062500000000000  0.0312500000000000  0.6562500000000000
  0.1562500000000000  0.2812500000000000  0.6562500000000000
  0.4062500000000000  0.2812500000000000  0.6562500000000000
  0.6562500000000000  0.2812500000000000  0.6562500000000000
  0.9062500000000000  0.2812500000000000  0.6562500000000000
  0.1562500000000000  0.5312500000000000  0.6562500000000000
  0.4062500000000000  0.5312500000000000  0.6562500000000000
  0.6562500000000000  0.5312500000000000  0.6562500000000000
  0.9062500000000000  0.5312500000000000  0.6562500000000000
  0.1562500000000000  0.7812500000000000  0.6562500000000000
  0.4062500000000000  0.7812500000000000  0.6562500000000000
  0.6562500000000000  0.7812500000000000  0.6562500000000000
  0.9062500000000000  0.7812500000000000  0.6562500000000000
  0.1562500000000000  0.0312500000000000  0.9062500000000000
  0.4062500000000000  0.0312500000000000  0.9062500000000000
  0.6562500000000000  0.0312500000000000  0.9062500000000000
  0.9062500000000000  0.0312500000000000  0.9062500000000000
  0.1562500000000000  0.2812500000000000  0.9062500000000000
  0.4062500000000000  0.2812500000000000  0.9062500000000000
  0.6562500000000000  0.2812500000000000  0.9062500000000000
  0.9062500000000000  0.2812500000000000  0.9062500000000000
  0.1562500000000000  0.5312500000000000  0.9062500000000000
  0.4062500000000000  0.5312500000000000  0.9062500000000000
  0.6562500000000000  0.5312500000000000  0.9062500000000000
  0.9062500000000000  0.5312500000000000  0.9062500000000000
  0.1562500000000000  0.7812500000000000  0.9062500000000000
  0.4062500000000000  0.7812500000000000  0.9062500000000000
  0.6562500000000000  0.7812500000000000  0.9062500000000000
  0.9062500000000000  0.7812500000000000  0.9062500000000000
  0.1562500000000000  0.1562500000000000  0.0312500000000000
  0.4062500000000000  0.1562500000000000  0.0312500000000000
  0.6562500000000000  0.1562500000000000  0.0312500000000000
  0.9062500000000000  0.1562500000000000  0.0312500000000000
  0.1562500000000000  0.4062500000000000  0.0312500000000000
  0.4062500000000000  0.4062500000000000  0.0312500000000000
  0.6562500000000000  0.4062500000000000  0.0312500000000000
  0.9062500000000000  0.4062500000000000  0.0312500000000000
  0.1562500000000000  0.6562500000000000  0.0312500000000000
  0.4062500000000000  0.6562500000000000  0.0312500000000000
  0.6562500000000000  0.6562500000000000  0.0312500000000000
  0.9062500000000000  0.6562500000000000  0.0312500000000000
  0.1562500000000000  0.9062500000000000  0.0312500000000000
  0.4062500000000000  0.9062500000000000  0.0312500000000000
  0.6562500000000000  0.9062500000000000  0.0312500000000000
  0.9062500000000000  0.9062500000000000  0.0312500000000000
  0.1562500000000000  0.1562500000000000  0.2812500000000000
  0.4062500000000000  0.1562500000000000  0.2812500000000000
  0.6562500000000000  0.1562500000000000  0.2812500000000000
  0.9062500000000000  0.1562500000000000  0.2812500000000000
  0.1562500000000000  0.4062500000000000  0.2812500000000000
  0.4062500000000000  0.4062500000000000  0.2812500000000000
  0.6562500000000000  0.4062500000000000  0.2812500000000000
  0.9062500000000000  0.4062500000000000  0.2812500000000000
  0.1562500000000000  0.6562500000000000  0.2812500000000000
  0.4062500000000000  0.6562500000000000  0.2812500000000000
  0.6562500000000000  0.6562500000000000  0.2812500000000000
  0.9062500000000000  0.6562500000000000  0.2812500000000000
  0.1562500000000000  0.9062500000000000  0.2812500000000000
  0.4062500000000000  0.9062500000000000  0.2812500000000000
  0.6562500000000000  0.9062500000000000  0.2812500000000000
  0.9062500000000000  0.9062500000000000  0.2812500000000000
  0.1562500000000000  0.1562500000000000  0.5312500000000000
  0.4062500000000000  0.1562500000000000  0.5312500000000000
  0.6562500000000000  0.1562500000000000  0.5312500000000000
  0.9062500000000000  0.1562500000000000  0.5312500000000000
  0.1562500000000000  0.4062500000000000  0.5312500000000000
  0.4062500000000000  0.4062500000000000  0.5312500000000000
  0.6562500000000000  0.4062500000000000  0.5312500000000000